sssd20-08.py
Ipopt 3.12.8: 
==> Warning: Treating 184 binary and 0 integer variables as continous.


******************************************************************************
This program contains Ipopt, a library for large-scale nonlinear optimization.
 Ipopt is released as open source code under the Eclipse Public License (EPL).
         For more information visit http://projects.coin-or.org/Ipopt
******************************************************************************

This is Ipopt version 3.12.8, running with linear solver ma27.

Number of nonzeros in equality constraint Jacobian...:      344
Number of nonzeros in inequality constraint Jacobian.:      120
Number of nonzeros in Lagrangian Hessian.............:        8

Total number of variables............................:      216
                     variables with only lower bounds:       32
                variables with lower and upper bounds:      184
                     variables with only upper bounds:        0
Total number of equality constraints.................:       28
Total number of inequality constraints...............:       56
        inequality constraints with only lower bounds:        0
   inequality constraints with lower and upper bounds:        0
        inequality constraints with only upper bounds:       56

iter    objective    inf_pr   inf_du lg(mu)  ||d||  lg(rg) alpha_du alpha_pr  ls
   0  7.7484536e+03 9.20e-01 2.86e+01  -1.0 0.00e+00    -  0.00e+00 0.00e+00   0
   1  7.5074625e+03 8.87e-01 2.66e+01  -1.0 5.40e-01    -  6.19e-02 3.55e-02f  1
   2  2.4770335e+04 7.84e-01 2.90e+01  -1.0 7.59e-01    -  5.62e-02 1.16e-01h  1
   3  5.3396712e+04 6.12e-01 1.65e+01  -1.0 7.40e-01    -  5.86e-01 2.20e-01h  1
   4  1.6528361e+05 2.64e-02 2.14e+01  -1.0 6.57e-01    -  3.57e-01 1.00e+00h  1
   5  1.8367919e+05 6.66e-16 2.25e-01  -1.0 1.33e-01    -  1.00e+00 1.00e+00h  1
   6  1.8204932e+05 6.66e-16 2.74e-01  -1.7 1.12e-01    -  8.38e-01 1.00e+00f  1
   7  1.8152203e+05 8.88e-16 1.66e-03  -1.7 2.29e-01    -  1.00e+00 1.00e+00f  1
   8  1.8031399e+05 5.38e-05 3.82e-01  -3.8 2.51e-01    -  5.86e-01 9.99e-01f  1
   9  1.7991519e+05 1.09e-05 2.49e-01  -3.8 3.16e-01    -  4.62e-01 7.84e-01f  1
iter    objective    inf_pr   inf_du lg(mu)  ||d||  lg(rg) alpha_du alpha_pr  ls
  10  1.7974590e+05 1.91e-06 1.31e-01  -3.8 3.78e-01    -  4.91e-01 6.82e-01f  1
  11  1.7967219e+05 6.66e-16 6.55e-02  -3.8 4.83e-01    -  4.70e-01 6.08e-01f  1
  12  1.7964149e+05 1.11e-15 3.21e-02  -3.8 4.24e-01    -  5.05e-01 6.03e-01f  1
  13  1.7962599e+05 6.66e-16 5.51e-03  -3.8 2.46e-01    -  8.04e-01 7.06e-01f  1
  14  1.7961757e+05 6.66e-16 3.85e-06  -3.8 1.67e-01    -  1.00e+00 1.00e+00f  1
  15  1.7959922e+05 6.66e-16 5.94e-03  -5.7 1.55e-01    -  6.01e-01 7.89e-01f  1
  16  1.7959603e+05 1.11e-15 2.27e-03  -5.7 2.16e-01    -  6.03e-01 5.76e-01f  1
  17  1.7959343e+05 1.33e-15 4.83e-04  -5.7 2.78e-01    -  7.12e-01 1.00e+00f  1
  18  1.7959338e+05 6.66e-16 7.52e-09  -5.7 1.58e-01    -  1.00e+00 1.00e+00h  1
  19  1.7959316e+05 8.88e-16 1.17e-04  -8.6 2.42e-02    -  9.76e-01 7.02e-01f  1
iter    objective    inf_pr   inf_du lg(mu)  ||d||  lg(rg) alpha_du alpha_pr  ls
  20  1.7959307e+05 1.55e-15 2.23e-05  -8.6 3.53e-03    -  1.00e+00 9.17e-01f  1
  21  1.7959306e+05 1.11e-15 2.94e-12  -8.6 2.74e-04    -  1.00e+00 1.00e+00f  1

Number of Iterations....: 21

                                   (scaled)                 (unscaled)
Objective...............:   2.0240716205889385e+02    1.7959306442330498e+05
Dual infeasibility......:   2.9361793174419236e-12    2.6052311388185514e-09
Constraint violation....:   1.1102230246251565e-15    1.1102230246251565e-15
Complementarity.........:   2.9969238905664254e-09    2.6591289550990865e-06
Overall NLP error.......:   2.9969238905664254e-09    2.6591289550990865e-06


Number of objective function evaluations             = 22
Number of objective gradient evaluations             = 22
Number of equality constraint evaluations            = 22
Number of inequality constraint evaluations          = 22
Number of equality constraint Jacobian evaluations   = 22
Number of inequality constraint Jacobian evaluations = 22
Number of Lagrangian Hessian evaluations             = 21
Total CPU secs in IPOPT (w/o function evaluations)   =      0.004
Total CPU secs in NLP function evaluations           =      0.000

EXIT: Optimal Solution Found.

Time elapsed: 0.153126001358